certificates/rado_a11_c123_N20.cnf
c Rad2 upper bound instance: x1 + 11*x2 - x3 = 123, interval [1,20]
p cnf 20 72
1 10 12 0
-1 -10 -12 0
2 11 12 0
-2 -11 -12 0
1 3 11 0
-1 -3 -11 0
3 12 0
-3 -12 0
2 4 11 0
-2 -4 -11 0
4 12 13 0
-4 -12 -13 0
3 5 11 0
-3 -5 -11 0
5 12 14 0
-5 -12 -14 0
4 6 11 0
-4 -6 -11 0
6 12 15 0
-6 -12 -15 0
5 7 11 0
-5 -7 -11 0
7 12 16 0
-7 -12 -16 0
6 8 11 0
-6 -8 -11 0
8 12 17 0
-8 -12 -17 0
7 9 11 0
-7 -9 -11 0
9 12 18 0
-9 -12 -18 0
8 10 11 0
-8 -10 -11 0
10 12 19 0
-10 -12 -19 0
9 11 0
-9 -11 0
11 12 20 0
-11 -12 -20 0
10 11 12 0
-10 -11 -12 0
11 13 0
-11 -13 0
1 10 14 0
-1 -10 -14 0
11 12 14 0
-11 -12 -14 0
2 10 15 0
-2 -10 -15 0
11 13 15 0
-11 -13 -15 0
3 10 16 0
-3 -10 -16 0
11 14 16 0
-11 -14 -16 0
4 10 17 0
-4 -10 -17 0
11 15 17 0
-11 -15 -17 0
5 10 18 0
-5 -10 -18 0
11 16 18 0
-11 -16 -18 0
6 10 19 0
-6 -10 -19 0
11 17 19 0
-11 -17 -19 0
7 10 20 0
-7 -10 -20 0
11 18 20 0
-11 -18 -20 0
