certificates/rado_a11_c123_N20.drat
-18 -20 0
d -18 -11 -20 0
-11 -20 0
12 -20 0
10 -20 0
-20 0
11 -12 0
-12 0
3 0
11 0
-1 0
-5 0
-9 0
-13 0
10 0
14 0
18 0
4 0
-8 0
-16 0
-2 0
-6 0
-17 0
0
